Lab10/Zad3_dual.lp
Maximize
- y1 - y2 - y3 - y4 - y5 - y6 - y7 - y8 - y9 - y10 - y11 - y12 - y13 - y14 - y15 - y16 - y17 - y18 -y19 - y20 - y21 - y22 - y23 - y24 - y25 - y26 - y27 - y28 - y29 - y30 - y31 - y32

Subject To
y1 + y8 + y15 >= 1
y1 + y10 + y16 >= 1
y1 + y13 + y17 >= 1
y2 + y8 + y18 >= 1
y2 + y11 + y19 >= 1
y3 + y9 + y20 >= 1
y3 + y10 + y21 >= 1
y3 + y12 + y22 >= 1
y4 + y8 + y23 >= 1
y4 + y11 + y24 >= 1
y4 + y14 + y25 >= 1
y5 + y9 + y26 >= 1
y5 + y14 + y27 >= 1
y6 + y9 + y28 >= 1
y6 + y12 + y29 >= 1
y6 + y13 + y30 >= 1
y7 + y10 + y31 >= 1
y7 + y14 + y32 >= 1

Bounds
0 <= y15 
0 <= y16 
0 <= y17 
0 <= y18 
0 <= y19 
0 <= y20 
0 <= y21 
0 <= y22 
0 <= y23 
0 <= y24 
0 <= y25 
0 <= y26 
0 <= y27 
0 <= y28 
0 <= y29 
0 <= y30
0 <= y31 
0 <= y32 


Generals
y1
y2
y3
y4
y5
y6
y7
y8
y9
y10
y11
y12
y13
y14
y15
y16
y17
y18
y19
y20
y21
y22
y23
y24
y25
y26
y27
y28
y29
y30
y31
y32

End
