Lab10/Zad3_dual
X = ["x11", "x13", "x16", "x21", "x24", "x32", "x33", "x35", "x41", "x44", "x47", "x52", "x57", "x62", "x65", "x66", "x73", "x77"]
A = [[1, 1, 1, 0, 0, 0 , 0 , 0 , 0, 0, 0, 0, 0, 0, 0, 0, 0, 0],
     [0, 0, 0, 1, 1, 0 , 0 , 0 , 0, 0, 0, 0, 0, 0, 0, 0, 0, 0],
     [0, 0, 0, 0, 0, 1 , 1 , 1 , 0, 0, 0, 0, 0, 0, 0, 0, 0, 0],
     [0, 0, 0, 0, 0, 0 , 0 , 0 , 1, 1, 1, 0, 0, 0, 0, 0, 0, 0],
     [0, 0, 0, 0, 0, 0 , 0 , 0 , 0, 0, 0, 1, 1, 0, 0, 0, 0, 0],
     [0, 0, 0, 0, 0, 0 , 0 , 0 , 0, 0, 0, 0, 0, 1, 1, 1, 0, 0],
     [0, 0, 0, 0, 0, 0 , 0 , 0 , 0, 0, 0, 0, 0, 0, 0, 0, 1, 1],
     [1, 0, 0, 1, 0, 0 , 0 , 0 , 1, 0, 0, 0, 0, 0, 0, 0, 0, 0],
     [0, 0, 0, 0, 0, 1 , 0 , 0 , 0, 0, 0, 1, 0, 1, 0, 0, 0, 0],
     [0, 1, 0, 0, 0, 0 , 1 , 0 , 0, 0, 0, 0, 0, 0, 0, 0, 1, 0],
     [0, 0, 0, 0, 1, 0 , 0 , 0 , 0, 1, 0, 0, 0, 0, 0, 0, 0, 0],
     [0, 0, 0, 0, 0, 0 , 0 , 1 , 0, 0, 0, 0, 0, 0, 1, 0, 0, 0],
     [0, 0, 1, 0, 0, 0 , 0 , 0 , 0, 0, 0, 0, 0, 0, 0, 1, 0, 0],
     [0, 0, 0, 0, 0, 0 , 0 , 0 , 0, 0, 1, 0, 1, 0, 0, 0, 0, 1],
     [1, 0, 0, 0, 0, 0 , 0 , 0 , 0, 0, 0, 0, 0, 0, 0, 0, 0, 0],
     [0, 1, 0, 0, 0, 0 , 0 , 0 , 0, 0, 0, 0, 0, 0, 0, 0, 0, 0],
     [0, 0, 1, 0, 0, 0 , 0 , 0 , 0, 0, 0, 0, 0, 0, 0, 0, 0, 0],
     [0, 0, 0, 1, 0, 0 , 0 , 0 , 0, 0, 0, 0, 0, 0, 0, 0, 0, 0],
     [0, 0, 0, 0, 1, 0 , 0 , 0 , 0, 0, 0, 0, 0, 0, 0, 0, 0, 0],
     [0, 0, 0, 0, 0, 1 , 0 , 0 , 0, 0, 0, 0, 0, 0, 0, 0, 0, 0],
     [0, 0, 0, 0, 0, 0 , 1 , 0 , 0, 0, 0, 0, 0, 0, 0, 0, 0, 0],
     [0, 0, 0, 0, 0, 0 , 0 , 1 , 0, 0, 0, 0, 0, 0, 0, 0, 0, 0],
     [0, 0, 0, 0, 0, 0 , 0 , 0 , 1, 0, 0, 0, 0, 0, 0, 0, 0, 0],
     [0, 0, 0, 0, 0, 0 , 0 , 0 , 0, 1, 0, 0, 0, 0, 0, 0, 0, 0],
     [0, 0, 0, 0, 0, 0 , 0 , 0 , 0, 0, 1, 0, 0, 0, 0, 0, 0, 0],
     [0, 0, 0, 0, 0, 0 , 0 , 0 , 0, 0, 0, 1, 0, 0, 0, 0, 0, 0],
     [0, 0, 0, 0, 0, 0 , 0 , 0 , 0, 0, 0, 0, 1, 0, 0, 0, 0, 0],
     [0, 0, 0, 0, 0, 0 , 0 , 0 , 0, 0, 0, 0, 0, 1, 0, 0, 0, 0],
     [0, 0, 0, 0, 0, 0 , 0 , 0 , 0, 0, 0, 0, 0, 0, 1, 0, 0, 0],
     [0, 0, 0, 0, 0, 0 , 0 , 0 , 0, 0, 0, 0, 0, 0, 0, 1, 0, 0],
     [0, 0, 0, 0, 0, 0 , 0 , 0 , 0, 0, 0, 0, 0, 0, 0, 0, 1, 0],
     [0, 0, 0, 0, 0, 0 , 0 , 0 , 0, 0, 0, 0, 0, 0, 0, 0, 0, 1]]

     

c = [1, 1, 1, 1, 1, 1 , 1 , 1 , 1, 1, 1, 1, 1, 1, 1, 1, 1, 1]
b = [1, 1, 1, 1, 1, 1 , 1 , 1 , 1, 1, 1, 1, 1, 1, 1, 1, 1, 1, 1, 1 , 1 , 1 , 1, 1, 1, 1, 1, 1, 1, 1, 1, 1]
constr_type = ["==" for i in range (0, 14)] + ["<=" for i in range (0, 18)]
P = InteractiveLPProblem(A, b, c, X, variable_type=">=", constraint_type=constr_type)
show(P)
    
D = P.dual()
show(D)
